Translating instance to solver...

GLPSOL: GLPK LP/MIP Solver, v4.65
Parameter(s) specified in the command line:
 --tmlim 10 --mipgap 0.001 --write C:\Users\LUCASP~1\AppData\Local\Temp\tmpnlffky3r.glpk.raw
 --wglp C:\Users\LUCASP~1\AppData\Local\Temp\tmpk9fv1577.glpk.glp --cpxlp
 C:\Users\LUCASP~1\AppData\Local\Temp\tmpc1mqzr5z.pyomo.lp
Reading problem data from 'C:\Users\LUCASP~1\AppData\Local\Temp\tmpc1mqzr5z.pyomo.lp'...
C:\Users\LUCASP~1\AppData\Local\Temp\tmpc1mqzr5z.pyomo.lp:29094: warning: lower bound of variable 'x1' redefined
C:\Users\LUCASP~1\AppData\Local\Temp\tmpc1mqzr5z.pyomo.lp:29094: warning: upper bound of variable 'x1' redefined
4617 rows, 3173 columns, 12029 non-zeros
3172 integer variables, 3160 of which are binary
32254 lines were read
Writing problem data to 'C:\Users\LUCASP~1\AppData\Local\Temp\tmpk9fv1577.glpk.glp'...
22153 lines were written
GLPK Integer Optimizer, v4.65
4617 rows, 3173 columns, 12029 non-zeros
3172 integer variables, 3160 of which are binary
Preprocessing...
116 hidden packing inequaliti(es) were detected
476 hidden covering inequaliti(es) were detected
85 constraint coefficient(s) were reduced
2365 rows, 1338 columns, 6375 non-zeros
1338 integer variables, 1327 of which are binary
Scaling...
 A: min|aij| =  1.000e+00  max|aij| =  1.100e+01  ratio =  1.100e+01
GM: min|aij| =  5.491e-01  max|aij| =  1.821e+00  ratio =  3.317e+00
EQ: min|aij| =  3.503e-01  max|aij| =  1.000e+00  ratio =  2.855e+00
2N: min|aij| =  2.500e-01  max|aij| =  1.375e+00  ratio =  5.500e+00
Constructing initial basis...
Size of triangular part is 2365
Solving LP relaxation...
GLPK Simplex Optimizer, v4.65
2365 rows, 1338 columns, 6375 non-zeros
      0: obj =   0.000000000e+00 inf =   8.025e+01 (101)
    347: obj =   3.077491333e+00 inf =   3.587e-15 (0) 2
*   705: obj =   6.117820000e-01 inf =   4.429e-15 (0) 3
OPTIMAL LP SOLUTION FOUND
Integer optimization begins...
Long-step dual simplex will be used
+   705: mip =     not found yet >=              -inf        (1; 0)
+  2911: mip =     not found yet >=   6.128047273e-01        (114; 7)
+  4010: >>>>>   1.817673000e+00 >=   6.837820000e-01  62.4% (198; 12)
+  4378: mip =   1.817673000e+00 >=   7.044290588e-01  61.2% (95; 170)
TIME LIMIT EXCEEDED; SEARCH TERMINATED
Time used:   10.2 secs
Memory used: 5.5 Mb (5732502 bytes)
Writing MIP solution to 'C:\Users\LUCASP~1\AppData\Local\Temp\tmpnlffky3r.glpk.raw'...
7799 lines were written

Time in solver (for this epsilon): 10.5944344997406 s
Elapsed time (for this epsilon): 11.676189661026001 s


Total elapsed time since execution of first epsilon: 17.17780303955078 s

Results:

E = 1.817673 mA
C = 62.0 points
C ~= 24.8 km^2

Minimum Epsilon for this instance = 9
Maximum Epsilon for this instance = 96

Current Epsilon = 18


Instance Epsilon Preprocessing Time: 0.004996538162231445 s


Updated solution vectors:
sol_E = [-0.611782,1.817673]
sol_C = [12.0,62.0]
sol_eps = [9,18]
sol_gap = [0.0,61.2]
